<number of tasks>
20

<cycle time>
1000

<order strength>
0,2


<task times>
1 149
2 162
3 280
4 140
5 45
6 590
7 171
8 276
9 111
10 381
11 116
12 186
13 482
14 343
15 185
16 34
17 181
18 79
19 393
20 273

<precedence relations>
1,6
1,8
2,7
3,10
5,9
6,11
7,12
8,14
9,13
10,15
11,16
12,18
13,17
14,18
15,19
16,20
17,20

<end>
